CrI3                                    
   1.00000000000000     
     6.7740499581848583    0.0000000000000000    0.0000000000000000
    -6.7740499581848583   11.7330057088467630    0.0000000000000000
     0.0000000000000000    0.0000000000000000   22.1213944608637121
   Cr   I 
     4    12
Direct
  0.5866452244585209  0.3373245080737242  0.5001602705028996
  0.5867601407795481  0.8372399647739324  0.4998917982863130
  0.2533670315930934  0.0043277821493793  0.4996686266877639
  0.2531614806427847  0.5041628577374115  0.4999736172372076
  0.5647385751907796  0.1700786345518723  0.5689665386941882
  0.5649165117369831  0.6701815997005325  0.5689637599609292
  0.9195745047821227  0.4939613070172561  0.5687272268055210
  0.9197931332024297  0.9938541586465781  0.5683478337553196
  0.2743399147202856  0.3481493387123092  0.5689680505713743
  0.2742473992663492  0.8482970135900025  0.5684613978675405
  0.2733441703039228  0.1713035169959077  0.4312074179473938
  0.2725925083652911  0.6709989116541862  0.4314069961240548
  0.9202711264756046  0.3469764888936857  0.4315569938434049
  0.9203510834258043  0.8476071937193753  0.4309335137297757
  0.5671760225199424  0.4942162469776566  0.4314405004878639
  0.5672811215325546  0.9942401310191824  0.4313254574984786
 
  0.00000000E+00  0.00000000E+00  0.00000000E+00
  0.00000000E+00  0.00000000E+00  0.00000000E+00
  0.00000000E+00  0.00000000E+00  0.00000000E+00
  0.00000000E+00  0.00000000E+00  0.00000000E+00
  0.00000000E+00  0.00000000E+00  0.00000000E+00
  0.00000000E+00  0.00000000E+00  0.00000000E+00
  0.00000000E+00  0.00000000E+00  0.00000000E+00
  0.00000000E+00  0.00000000E+00  0.00000000E+00
  0.00000000E+00  0.00000000E+00  0.00000000E+00
  0.00000000E+00  0.00000000E+00  0.00000000E+00
  0.00000000E+00  0.00000000E+00  0.00000000E+00
  0.00000000E+00  0.00000000E+00  0.00000000E+00
  0.00000000E+00  0.00000000E+00  0.00000000E+00
  0.00000000E+00  0.00000000E+00  0.00000000E+00
  0.00000000E+00  0.00000000E+00  0.00000000E+00
  0.00000000E+00  0.00000000E+00  0.00000000E+00
